SPARKNaCl/why3-z3/sparknacl-hashing-sha2_common.adb_300_29_range_check_1.smt2
;; produced by z3_gnatprove.drv ;;
(set-info :smt-lib-version 2.5)
(set-info :source |VC generated by SPARK 2014|)
(set-info :category industrial)
(set-info :status unknown)
;;; generated by SMT-LIB2 driver
;;; SMT-LIB2 driver: bit-vectors, common part
;;; SMT-LIB2: integer arithmetic
(define-fun __cdiv ((x Int) (y Int)) Int (ite (>= x 0) (div x y) (- (div (- x) y))))
(define-fun __cmod ((x Int) (y Int)) Int (ite (>= x 0) (mod x y) (- (mod (- x) y))))
(declare-datatypes ()
  ((int__ref (int__refqtmk (int__content Int)))))

(declare-datatypes ()
  ((bool__ref (bool__refqtmk (bool__content Bool)))))

;; "mod"
(define-fun mod1 ((x Int) (y Int)) Int
  (ite (<= 0 y) (mod x y) (- (mod (- x) y))))

(declare-datatypes ()
  ((t__ref (t__refqtmk (t__content (_ BitVec 8))))))

;; "uint_in_range"
(define-fun uint_in_range ((i Int)) Bool
  (and (<= 0 i) (<= i 18446744073709551615)))

(declare-datatypes ()
  ((t__ref1 (t__refqtmk1 (t__content1 (_ BitVec 64))))))

(declare-sort byte 0)

;; "to_rep"
(declare-fun to_rep (byte) (_ BitVec 8))

;; "of_rep"
(declare-fun of_rep ((_ BitVec 8)) byte)

;; "inversion_axiom"
(assert
  (forall ((x byte)) (! (= (of_rep (to_rep x)) x) :pattern ((to_rep x)) )))

;; "range_axiom"
(assert true)

;; "coerce_axiom"
(assert
  (forall ((x (_ BitVec 8)))
    (! (= (to_rep (of_rep x)) x) :pattern ((to_rep (of_rep x))) )))

(declare-sort map1 0)

(declare-datatypes ()
  ((map__ref (map__refqtmk (map__content map1)))))

;; "has_bounds"
(declare-fun has_bounds (map1
  Int
  Int) Bool)

;; "get"
(declare-fun get (map1
  Int) byte)

;; "set"
(declare-fun set (map1
  Int
  byte) map1)

;; "set_eq"
(assert
  (forall ((a map1) (i Int) (v byte))
    (! (= (get (set a i v) i) v) :pattern ((set a i v)) )))

;; "set_neq"
(assert
  (forall ((a map1) (i Int) (v byte))
    (! (forall ((j Int))
         (! (=> (not (= i j)) (= (get (set a i v) j) (get a j))) :pattern (
         (get
           a
           j)) :pattern ((get (set a i v) j)) )) :pattern ((set a i v)) )))

;; "set_has_bounds"
(assert
  (forall ((a map1) (i Int) (f Int) (l Int) (v byte))
    (! (=>
         (and (<= f i) (<= i l))
         (=> (has_bounds a f l) (has_bounds (set a i v) f l))) :pattern (
    (has_bounds
      (set a i v)
      f
      l)) )))

;; "slide"
(declare-fun slide (map1
  Int
  Int) map1)

;; "slide_eq"
(assert
  (forall ((a map1) (first Int))
    (! (= (slide a first first) a) :pattern ((slide a first first)) )))

;; "slide_def"
(assert
  (forall ((a map1) (old_first Int) (new_first Int))
    (! (and
         (forall ((i Int))
           (! (= (get (slide a old_first new_first) i) (get
                                                         a
                                                         (- i (- new_first old_first)))) :pattern (
           (get
             (slide a old_first new_first)
             i)) ))
         (forall ((new_last Int))
           (! (=>
                (has_bounds a old_first (- new_last (- new_first old_first)))
                (has_bounds (slide a old_first new_first) new_first new_last)) :pattern (
           (has_bounds
             (slide a old_first new_first)
             new_first
             new_last)) ))) :pattern ((slide a old_first new_first)) )))

;; "slice"
(declare-fun slice (map1
  Int
  Int) map1)

;; "slice_eq"
(assert
  (forall ((a map1) (f Int) (l Int))
    (! (=> (has_bounds a f l) (= (slice a f l) a)) :pattern ((slice a f l)
    (has_bounds a f l)) )))

;; "slice_slice"
(assert
  (forall ((a map1) (f1 Int) (l1 Int) (f2 Int) (l2 Int))
    (! (=>
         (and (<= f1 f2) (<= l2 l1))
         (= (slice (slice a f1 l1) f2 l2) (slice a f2 l2))) :pattern (
    (slice
      (slice a f1 l1)
      f2
      l2)) )))

;; "slice_def"
(assert
  (forall ((a map1) (f Int) (l Int))
    (! (forall ((i Int))
         (! (=> (and (<= f i) (<= i l)) (= (get (slice a f l) i) (get a i))) :pattern (
         (get
           (slice a f l)
           i)) :pattern ((get a i)) )) :pattern ((slice a f l)) )))

;; "slice_has_bounds"
(assert
  (forall ((a map1) (f Int) (l Int))
    (! (has_bounds (slice a f l) f l) :pattern ((has_bounds
                                                  (slice a f l)
                                                  f
                                                  l)) )))

;; "big_endian_get_byte"
(declare-fun big_endian_get_byte ((_ BitVec 64)
  Int) (_ BitVec 8))

;; "big_endian_get_byte__function_guard"
(declare-fun big_endian_get_byte__function_guard ((_ BitVec 8)
  (_ BitVec 64)
  Int) Bool)

;; "in_range"
(define-fun in_range ((x Int)) Bool
  (and (<= 0 x) (<= x 7)))

;; "big_endian_unpack"
(declare-fun big_endian_unpack ((_ BitVec 64)) map1)

;; "big_endian_unpack__function_guard"
(declare-fun big_endian_unpack__function_guard (map1
  (_ BitVec 64)) Bool)

(declare-const iv map1)

(declare-sort tinteger_32B 0)

;; "tinteger_32B'int"
(declare-fun tinteger_32Bqtint (tinteger_32B) Int)

;; "tinteger_32B'axiom"
(assert
  (forall ((i tinteger_32B))
    (and
      (<= (- 2147483648) (tinteger_32Bqtint i))
      (<= (tinteger_32Bqtint i) 2147483647))))

;; "in_range"
(define-fun in_range1 ((x Int)) Bool
  (and (<= (- 2147483648) x) (<= x 2147483647)))

;; "to_rep"
(define-fun to_rep1 ((x tinteger_32B)) Int
  (tinteger_32Bqtint x))

;; "of_rep"
(declare-fun of_rep1 (Int) tinteger_32B)

;; "inversion_axiom"
(assert
  (forall ((x tinteger_32B))
    (! (= (of_rep1 (to_rep1 x)) x) :pattern ((to_rep1 x)) )))

;; "range_axiom"
(assert
  (forall ((x tinteger_32B))
    (! (in_range1 (to_rep1 x)) :pattern ((to_rep1 x)) )))

;; "coerce_axiom"
(assert
  (forall ((x Int))
    (! (=> (in_range1 x) (= (to_rep1 (of_rep1 x)) x)) :pattern ((to_rep1
                                                                  (of_rep1 x))) )))

;; "in_range"
(define-fun in_range2 ((x Int)) Bool
  (and (<= 0 x) (<= x 2147483647)))

(declare-datatypes ()
  ((t (tqtmk (rec__first tinteger_32B)(rec__last tinteger_32B)))))

;; "mk"
(declare-fun mk (Int
  Int) t)

;; "mk_def"
(assert
  (forall ((f Int) (l Int))
    (! (=>
         (in_range1 f)
         (=>
           (in_range1 l)
           (and
             (= (to_rep1 (rec__first (mk f l))) f)
             (= (to_rep1 (rec__last (mk f l))) l)))) :pattern ((mk f l)) )))

;; "dynamic_property"
(define-fun dynamic_property ((range_first Int) (range_last Int) (low Int) (high Int)) Bool
  (and
    (in_range1 low)
    (and
      (in_range1 high)
      (=> (<= low high) (and (in_range2 low) (in_range2 high))))))

(declare-datatypes ()
  ((us_t (us_tqtmk (elts map1)(rt t)))))

;; "to_array"
(define-fun to_array ((a us_t)) map1
  (elts a))

;; "of_array"
(define-fun of_array ((a map1) (f Int) (l Int)) us_t
  (us_tqtmk a (mk f l)))

;; "first"
(define-fun first ((a us_t)) Int
  (to_rep1 (rec__first (rt a))))

;; "last"
(define-fun last ((a us_t)) Int
  (to_rep1 (rec__last (rt a))))

;; "length"
(define-fun length ((a us_t)) Int
  (ite (<= (first a) (last a)) (+ (- (last a) (first a)) 1) 0))

;; "well_formed"
(define-fun well_formed ((a us_t)) Bool
  (has_bounds
    (elts a)
    (to_rep1 (rec__first (rt a)))
    (to_rep1 (rec__last (rt a)))))

(declare-const m us_t)

;; "in_range"
(define-fun in_range3 ((x Int)) Bool
  (and (<= (- 2147483648) x) (<= x 2147483647)))

;; "dynamic_invariant"
(define-fun dynamic_invariant ((temp___expr_329 us_t) (temp___is_init_325 Bool) (temp___skip_constant_326 Bool) (temp___do_toplevel_327 Bool) (temp___do_typ_inv_328 Bool)) Bool
  (and
    (=>
      (not (= temp___skip_constant_326 true))
      (dynamic_property
        0
        2147483647
        (first temp___expr_329)
        (last temp___expr_329)))
    (well_formed temp___expr_329)))

;; "in_range"
(define-fun in_range4 ((x Int)) Bool
  (and (<= (- 9223372036854775808) x) (<= x 9223372036854775807)))

;; "in_range"
(define-fun in_range5 ((x Int)) Bool
  (and (<= 0 x) (<= x 127)))

;; "temp_____aggregate_def_729"
(declare-fun temp_____aggregate_def_729 ((_ BitVec 8)) map1)

;; "big_endian_get_byte__post_axiom"
(assert
  (forall ((param__input (_ BitVec 64)))
    (forall ((param__index Int))
      (! (=>
           (in_range param__index)
           (let ((result (big_endian_get_byte param__input param__index)))
             (=>
               (big_endian_get_byte__function_guard
                 result
                 param__input
                 param__index)
               (= result ((_ extract 7 0) (bvurem (bvlshr param__input ((_ int2bv 64) (* (- 7 param__index) 8))) #x0000000000000100)))))) :pattern (
      (big_endian_get_byte
        param__input
        param__index)) ))))

(declare-const output map1)

(declare-const x map1)

(declare-const b Int)

(declare-const final_block_first Int)

(declare-const ml_msb (_ BitVec 8))

(declare-const ml_lsbs (_ BitVec 64))

;; "ml_lsbs'unused"
(define-fun ml_lsbsqtunused () t__ref1
  (t__refqtmk1 ml_lsbs))

;; "ml_msb'unused"
(define-fun ml_msbqtunused () t__ref
  (t__refqtmk ml_msb))

;; "final_block_first'unused"
(define-fun final_block_firstqtunused () int__ref
  (int__refqtmk final_block_first))

;; "b'unused"
(define-fun bqtunused () int__ref
  (int__refqtmk b))

;; "x'unused"
(define-fun xqtunused () map__ref
  (map__refqtmk x))

;; "Assume"
(assert (has_bounds output 0 63))

;; "Assume"
(assert (has_bounds iv 0 63))

;; "Assume"
(assert (dynamic_invariant m true false true true))

(declare-const h map1)

;; "h'unused"
(define-fun hqtunused () map__ref
  (map__refqtmk h))

;; "H"
(assert (= h iv))

;; "Assume"
(assert (has_bounds h 0 63))

;; "Assume"
(assert true)

;; "Assume"
(assert (has_bounds x 0 255))

;; "Assume"
(assert true)

;; "Assume"
(assert (in_range5 b))

;; "Assume"
(assert true)

;; "Assume"
(assert (in_range3 final_block_first))

;; "Assume"
(assert true)

;; "Assume"
(assert true)

;; "Assume"
(assert true)

;; "Assume"
(assert true)

(declare-const temp___733 map1)

;; "H"
(assert (has_bounds temp___733 0 255))

;; "H"
(assert
  (forall ((temp___732 Int))
    (! (=>
         (and (<= 0 temp___732) (<= temp___732 255))
         (= (to_rep (get temp___733 temp___732)) #x00)) :pattern ((get
                                                                    temp___733
                                                                    temp___732)) )))

;; "H"
(assert (= temp___733 (temp_____aggregate_def_729 #x00)))

;; "temp_____aggregate_def_729'result'unused"
(define-fun temp_____aggregate_def_729qtresultqtunused () map1
  temp___733)

(declare-const x1 map1)

;; "x'unused"
(define-fun xqtunused1 () map__ref
  (map__refqtmk x1))

;; "H"
(assert (= x1 temp___733))

;; "map__content'result'unused"
(define-fun map__contentqtresultqtunused () map1
  h)

(declare-const h1 map1)

;; "h'unused"
(define-fun hqtunused1 () map__ref
  (map__refqtmk h1))

;; "H"
(assert (has_bounds h1 0 63))

;; "H"
(assert true)

;; "H"
(assert true)

;; "o"
(define-fun o () Int
  (length m))

;; "length'result'unused"
(define-fun lengthqtresultqtunused () Int
  o)

;; "Ensures"
(assert (in_range4 o))

;; "range_check_'result'unused"
(define-fun range_check_qtresultqtunused () Int
  o)

;; "o"
(define-fun o1 () Int
  (mod1 o 128))

;; "mod_'result'unused"
(define-fun mod_qtresultqtunused () Int
  o1)

;; "Ensures"
(assert (in_range5 o1))

;; "range_check_'result'unused"
(define-fun range_check_qtresultqtunused1 () Int
  o1)

(declare-const b1 Int)

;; "b'unused"
(define-fun bqtunused1 () int__ref
  (int__refqtmk b1))

;; "H"
(assert (= b1 o1))

(declare-const spark__branch Bool)

(declare-const x2 map1)

;; "x'unused"
(define-fun xqtunused2 () map__ref
  (map__refqtmk x2))

;; "spark__branch'unused"
(define-fun spark__branchqtunused () bool__ref
  (bool__refqtmk spark__branch))

(declare-const int__contentqtresultqtunused Int)

;; "H"
(assert (= int__contentqtresultqtunused b1))

(declare-const o2 Bool)

;; "H"
(assert (= o2 (ite (< 0 b1) true false)))

(declare-const infix_gtqtresultqtunused Bool)

;; "H"
(assert (= infix_gtqtresultqtunused o2))

;; "H"
(assert (= spark__branch o2))

(declare-const bool__contentqtresultqtunused Bool)

;; "H"
(assert (= bool__contentqtresultqtunused spark__branch))

(declare-const int__contentqtresultqtunused1 Int)

(declare-const o3 Int)

(declare-const lastqtresultqtunused Int)

(declare-const o4 Int)

(declare-const infix_mnqtresultqtunused Int)

(declare-const range_check_qtresultqtunused2 Int)

(declare-const o5 Int)

(declare-const infix_plqtresultqtunused Int)

(declare-const range_check_qtresultqtunused3 Int)

(declare-const final_block_first1 Int)

(declare-const final_block_firstqtunused1 int__ref)

(declare-const temp___740 Int)

(declare-const lastqtresultqtunused1 Int)

(declare-const int__contentqtresultqtunused2 Int)

(declare-const o6 map1)

(declare-const to_arrayqtresultqtunused map1)

(declare-const o7 map1)

(declare-const sliceqtresultqtunused map1)

(declare-const temp___741 us_t)

(declare-const of_arrayqtresultqtunused us_t)

(declare-const o8 Int)

(declare-const firstqtresultqtunused Int)

(declare-const o9 map1)

(declare-const to_arrayqtresultqtunused1 map1)

(declare-const temp___742 map1)

(declare-const slideqtresultqtunused map1)

(declare-const int__contentqtresultqtunused3 Int)

(declare-const o10 Int)

(declare-const infix_mnqtresultqtunused1 Int)

(declare-const temp___743 us_t)

(declare-const of_arrayqtresultqtunused1 us_t)

(declare-const int__contentqtresultqtunused4 Int)

(declare-const temp___745 Int)

(declare-const infix_mnqtresultqtunused2 Int)

(declare-const map__contentqtresultqtunused1 map1)

(declare-const o11 map1)

(declare-const sliceqtresultqtunused1 map1)

(declare-const temp___746 us_t)

(declare-const of_arrayqtresultqtunused2 us_t)

(declare-const usf map1)

(declare-const anyqtresultqtunused map1)

(declare-const int__contentqtresultqtunused5 Int)

(declare-const temp___750 Int)

(declare-const infix_mnqtresultqtunused3 Int)

(declare-const infix_lseqqtresultqtunused Bool)

;; "H"
(assert
  (ite (= spark__branch true)
    (and
      (= int__contentqtresultqtunused1 b1)
      (and
        (= o3 (last m))
        (and
          (= lastqtresultqtunused o3)
          (and
            (= o4 (- o3 b1))
            (and
              (= infix_mnqtresultqtunused o4)
              (and
                (in_range1 o4)
                (and
                  (= range_check_qtresultqtunused2 o4)
                  (and
                    (= o5 (+ o4 1))
                    (and
                      (= infix_plqtresultqtunused o5)
                      (and
                        (in_range1 o5)
                        (and
                          (= range_check_qtresultqtunused3 o5)
                          (and
                            (= final_block_firstqtunused1 (int__refqtmk
                                                            final_block_first1))
                            (and
                              (= final_block_first1 o5)
                              (and
                                (= temp___740 (last m))
                                (and
                                  (= lastqtresultqtunused1 temp___740)
                                  (and
                                    (= int__contentqtresultqtunused2 
                                    final_block_first1)
                                    (and
                                      (=>
                                        (<= final_block_first1 temp___740)
                                        (and
                                          (and
                                            (<= (first m) final_block_first1)
                                            (<= final_block_first1 (last m)))
                                          (and
                                            (<= (first m) temp___740)
                                            (<= temp___740 (last m)))))
                                      (and
                                        (= o6 (to_array m))
                                        (and
                                          (= to_arrayqtresultqtunused 
                                          o6)
                                          (and
                                            (= o7 (slice
                                                    o6
                                                    final_block_first1
                                                    temp___740))
                                            (and
                                              (= sliceqtresultqtunused 
                                              o7)
                                              (and
                                                (= temp___741 (of_array
                                                                o7
                                                                final_block_first1
                                                                temp___740))
                                                (and
                                                  (= of_arrayqtresultqtunused 
                                                  temp___741)
                                                  (and
                                                    (= o8 final_block_first1)
                                                    (and
                                                      (= firstqtresultqtunused 
                                                      o8)
                                                      (and
                                                        (= o9 o7)
                                                        (and
                                                          (= to_arrayqtresultqtunused1 
                                                          o9)
                                                          (and
                                                            (= temp___742 
                                                            (slide
                                                              o9
                                                              o8
                                                              0))
                                                            (and
                                                              (= slideqtresultqtunused 
                                                              temp___742)
                                                              (and
                                                                (ite (<= 
                                                                  final_block_first1 
                                                                  temp___740)
                                                                  (and
                                                                    (<= 0 (- 
                                                                    b1 1))
                                                                    (= (- 
                                                                    temp___740 
                                                                    final_block_first1) (- (- 
                                                                    b1 1) 0)))
                                                                  (< (- 
                                                                  b1 1) 0))
                                                                (and
                                                                  (= 
                                                                  int__contentqtresultqtunused3 
                                                                  b1)
                                                                  (and
                                                                    (= 
                                                                    o10 (- 
                                                                    b1 1))
                                                                    (and
                                                                    (= 
                                                                    infix_mnqtresultqtunused1 
                                                                    o10)
                                                                    (and
                                                                    (= 
                                                                    temp___743 
                                                                    (of_array
                                                                    temp___742
                                                                    0
                                                                    o10))
                                                                    (and
                                                                    (= 
                                                                    of_arrayqtresultqtunused1 
                                                                    temp___743)
                                                                    (and
                                                                    (= 
                                                                    int__contentqtresultqtunused4 
                                                                    b1)
                                                                    (and
                                                                    (= 
                                                                    temp___745 (- 
                                                                    b1 1))
                                                                    (and
                                                                    (= 
                                                                    infix_mnqtresultqtunused2 
                                                                    temp___745)
                                                                    (and
                                                                    (=>
                                                                    (<= 0 
                                                                    temp___745)
                                                                    (and
                                                                    (and
                                                                    (<= 0 0)
                                                                    (<= 0 255))
                                                                    (and
                                                                    (<= 0 
                                                                    temp___745)
                                                                    (<= 
                                                                    temp___745 255))))
                                                                    (and
                                                                    (= 
                                                                    map__contentqtresultqtunused1 
                                                                    x1)
                                                                    (and
                                                                    (= 
                                                                    o11 
                                                                    (slice
                                                                    x1
                                                                    0
                                                                    temp___745))
                                                                    (and
                                                                    (= 
                                                                    sliceqtresultqtunused1 
                                                                    o11)
                                                                    (and
                                                                    (= 
                                                                    temp___746 
                                                                    (of_array
                                                                    o11
                                                                    0
                                                                    temp___745))
                                                                    (and
                                                                    (= 
                                                                    of_arrayqtresultqtunused2 
                                                                    temp___746)
                                                                    (and
                                                                    (ite (<= 0 
                                                                    o10)
                                                                    (and
                                                                    (<= 0 
                                                                    temp___745)
                                                                    (= (- 
                                                                    o10 0) (- 
                                                                    temp___745 0)))
                                                                    (< 
                                                                    temp___745 0))
                                                                    (and
                                                                    (and
                                                                    (= 
                                                                    int__contentqtresultqtunused5 
                                                                    b1)
                                                                    (and
                                                                    (= 
                                                                    temp___750 (- 
                                                                    b1 1))
                                                                    (and
                                                                    (= 
                                                                    infix_mnqtresultqtunused3 
                                                                    temp___750)
                                                                    (= 
                                                                    infix_lseqqtresultqtunused 
                                                                    (ite (<= 0 
                                                                    temp___750)
                                                                    true
                                                                    false)))))
                                                                    (and
                                                                    (forall 
                                                                    ((temp___748 Int))
                                                                    (ite 
                                                                    (and
                                                                    (<= 0 temp___748)
                                                                    (<= temp___748 (- 
                                                                    b1 1)))
                                                                    (= 
                                                                    (get
                                                                    usf
                                                                    temp___748) 
                                                                    (get
                                                                    temp___742
                                                                    temp___748))
                                                                    (= 
                                                                    (get
                                                                    usf
                                                                    temp___748) 
                                                                    (get
                                                                    x1
                                                                    temp___748))))
                                                                    (and
                                                                    (= 
                                                                    anyqtresultqtunused 
                                                                    usf)
                                                                    (= 
                                                                    x2 
                                                                    usf)))))))))))))))))))))))))))))))))))))))))))))))))
    (= x2 x1)))

(declare-const o12 byte)

;; "Ensures"
(assert (= (to_rep o12) #x80))

;; "of_rep'result'unused"
(define-fun of_repqtresultqtunused () byte
  o12)

;; "int__content'result'unused"
(define-fun int__contentqtresultqtunused6 () Int
  b1)

;; "map__content'result'unused"
(define-fun map__contentqtresultqtunused2 () map1
  x2)

;; "o"
(define-fun o13 () map1
  (set x2 b1 o12))

;; "set'result'unused"
(define-fun setqtresultqtunused () map1
  o13)

(declare-const x3 map1)

;; "x'unused"
(define-fun xqtunused3 () map__ref
  (map__refqtmk x3))

;; "H"
(assert (= x3 o13))

;; "o"
(define-fun o14 () (_ BitVec 64)
  ((_ int2bv 64) 61))

;; "of_int'result'unused"
(define-fun of_intqtresultqtunused () (_ BitVec 64)
  o14)

;; "o"
(define-fun o15 () Int
  (length m))

;; "length'result'unused"
(define-fun lengthqtresultqtunused1 () Int
  o15)

;; "Ensures"
(assert (uint_in_range o15))

;; "range_check_int_'result'unused"
(define-fun range_check_int_qtresultqtunused () Int
  o15)

;; "o"
(define-fun o16 () (_ BitVec 64)
  ((_ int2bv 64) o15))

;; "of_int'result'unused"
(define-fun of_intqtresultqtunused1 () (_ BitVec 64)
  o16)

;; "o"
(define-fun o17 () (_ BitVec 64)
  (bvlshr o16 o14))

;; "lsr_bv'result'unused"
(define-fun lsr_bvqtresultqtunused () (_ BitVec 64)
  o17)

;; "o"
(define-fun o18 () (_ BitVec 64)
  ((_ zero_extend 56) #xFF))

;; "toBig'result'unused"
(define-fun toBigqtresultqtunused () (_ BitVec 64)
  o18)

;; "o"
(define-fun o19 () (_ BitVec 64)
  ((_ zero_extend 56) #x00))

;; "toBig'result'unused"
(define-fun toBigqtresultqtunused1 () (_ BitVec 64)
  o19)

;; "range_check_'result'unused"
(define-fun range_check_qtresultqtunused4 () (_ BitVec 64)
  o17)

;; "o"
(define-fun o20 () (_ BitVec 8)
  ((_ extract 7 0) o17))

;; "toSmall'result'unused"
(define-fun toSmallqtresultqtunused () (_ BitVec 8)
  o20)

(declare-const ml_msb1 (_ BitVec 8))

;; "ml_msb'unused"
(define-fun ml_msbqtunused1 () t__ref
  (t__refqtmk ml_msb1))

;; "H"
(assert (= ml_msb1 o20))

;; "o"
(define-fun o21 () Int
  (length m))

;; "length'result'unused"
(define-fun lengthqtresultqtunused2 () Int
  o21)

;; "Ensures"
(assert (uint_in_range o21))

;; "range_check_int_'result'unused"
(define-fun range_check_int_qtresultqtunused1 () Int
  o21)

;; "o"
(define-fun o22 () (_ BitVec 64)
  ((_ int2bv 64) o21))

;; "of_int'result'unused"
(define-fun of_intqtresultqtunused2 () (_ BitVec 64)
  o22)

;; "o"
(define-fun o23 () (_ BitVec 64)
  (bvmul o22 #x0000000000000008))

;; "mul'result'unused"
(define-fun mulqtresultqtunused () (_ BitVec 64)
  o23)

(declare-const ml_lsbs1 (_ BitVec 64))

;; "ml_lsbs'unused"
(define-fun ml_lsbsqtunused1 () t__ref1
  (t__refqtmk1 ml_lsbs1))

;; "H"
(assert (= ml_lsbs1 o23))

;; "int__content'result'unused"
(define-fun int__contentqtresultqtunused7 () Int
  b1)

;; "o"
(define-fun o24 () Bool
  (ite (< b1 112) true false))

;; "infix <'result'unused"
(define-fun infix_lsqtresultqtunused () Bool
  o24)

(declare-const spark__branch1 Bool)

;; "spark__branch'unused"
(define-fun spark__branchqtunused1 () bool__ref
  (bool__refqtmk spark__branch1))

;; "H"
(assert (= spark__branch1 o24))

;; "bool__content'result'unused"
(define-fun bool__contentqtresultqtunused1 () Bool
  spark__branch1)

;; "H"
(assert (= spark__branch1 true))

;; "t__content'result'unused"
(define-fun t__contentqtresultqtunused () (_ BitVec 8)
  ml_msb1)

(declare-const o25 byte)

;; "Ensures"
(assert (= (to_rep o25) ml_msb1))

;; "of_rep'result'unused"
(define-fun of_repqtresultqtunused1 () byte
  o25)

;; "map__content'result'unused"
(define-fun map__contentqtresultqtunused3 () map1
  x3)

;; "o"
(define-fun o26 () map1
  (set x3 119 o25))

;; "set'result'unused"
(define-fun setqtresultqtunused1 () map1
  o26)

(declare-const x4 map1)

;; "x'unused"
(define-fun xqtunused4 () map__ref
  (map__refqtmk x4))

;; "H"
(assert (= x4 o26))

;; "t__content'result'unused"
(define-fun t__contentqtresultqtunused1 () (_ BitVec 64)
  ml_lsbs1)

;; "temp___758"
(define-fun temp___758 () map1
  (big_endian_unpack ml_lsbs1))

;; "H"
(assert
  (forall ((i Int))
    (big_endian_get_byte__function_guard
      (big_endian_get_byte ml_lsbs1 i)
      ml_lsbs1
      i)))

;; "H"
(assert (big_endian_unpack__function_guard temp___758 ml_lsbs1))

;; "H"
(assert (has_bounds temp___758 0 7))

;; "H"
(assert
  (forall ((i Int))
    (=>
      (and (<= 0 i) (<= i 7))
      (= (to_rep (get temp___758 i)) (big_endian_get_byte ml_lsbs1 i)))))

;; "big_endian_unpack'result'unused"
(define-fun big_endian_unpackqtresultqtunused () map1
  temp___758)

;; "temp___759"
(define-fun temp___759 () map1
  (slide temp___758 0 120))

;; "slide'result'unused"
(define-fun slideqtresultqtunused1 () map1
  temp___759)

(declare-const usf1 map1)

;; "H"
(assert true)

;; "H"
(assert true)

;; "H"
(assert true)

;; "H"
(assert
  (forall ((temp___761 Int))
    (ite (and (<= 120 temp___761) (<= temp___761 127))
      (= (get usf1 temp___761) (get temp___759 temp___761))
      (= (get usf1 temp___761) (get x4 temp___761)))))

;; "any'result'unused"
(define-fun anyqtresultqtunused1 () map1
  usf1)

(declare-const x5 map1)

;; "x'unused"
(define-fun xqtunused5 () map__ref
  (map__refqtmk x5))

;; "H"
(assert (= x5 usf1))

;; "map__content'result'unused"
(define-fun map__contentqtresultqtunused4 () map1
  h1)

;; "H"
(assert (<= 0 127))

;; Goal "def'vc"
;; File "sparknacl-hashing-sha2_common.ads", line 26, characters 0-0
(assert
  (not (<= 0 0)))

(check-sat)
